;; translated from ./ctigar/bind_expands_vars2.c.vmt
;; original benchmark available at: https://es-static.fbk.eu/people/griggio/ic3ia/index.html
;; author: Alberto Griggio <griggio@fbk.eu>
(set-logic HORN)
(declare-fun state (Bool Bool Bool Bool Int Int Int Int Int) Bool)
(assert (forall ((|.s.0| Bool) (|.s.2| Bool) (|.s.1| Bool) (|.s.0.next| Bool) (|.s.1.next| Bool) (|.s.2.next| Bool) (|.s.3.next| Bool) (|main.mc_i.next| Int) (|main.mc_i| Int) (|main.n1.next| Int) (|main.n1| Int) (|main.maxdata.next| Int) (|main.maxdata| Int) (|main.n2.next| Int) (|main.n2| Int) (|main.cpoff.next| Int) (|main.cpoff| Int) (|.s.3| Bool)) (=> (let ((.def_17 (not .s.3)))
(let ((.def_14 (not .s.2)))
(let ((.def_10 (not .s.1)))
(let ((.def_12 (and .def_10 .s.0)))
(let ((.def_15 (and .def_12 .def_14)))
(let ((.def_18 (and .def_15 .def_17)))
.def_18)))))) (state |.s.1| |.s.0| |.s.2| |.s.3| |main.cpoff| |main.n2| |main.maxdata| |main.n1| |main.mc_i|))))
(assert (forall ((|.s.0| Bool) (|.s.2| Bool) (|.s.1| Bool) (|.s.0.next| Bool) (|.s.1.next| Bool) (|.s.2.next| Bool) (|.s.3.next| Bool) (|main.mc_i.next| Int) (|main.mc_i| Int) (|main.n1.next| Int) (|main.n1| Int) (|main.maxdata.next| Int) (|main.maxdata| Int) (|main.n2.next| Int) (|main.n2| Int) (|main.cpoff.next| Int) (|main.cpoff| Int) (|.s.3| Bool)) (=> (and (state |.s.1| |.s.0| |.s.2| |.s.3| |main.cpoff| |main.n2| |main.maxdata| |main.n1| |main.mc_i|) (let ((.def_19 (not .s.0)))
(let ((.def_10 (not .s.1)))
(let ((.def_20 (and .def_10 .def_19)))
(let ((.def_14 (not .s.2)))
(let ((.def_97 (and .def_14 .def_20)))
(let ((.def_17 (not .s.3)))
(let ((.def_235 (and .def_17 .def_97)))
(let ((.def_236 (not .def_235)))
(let ((.def_46 (not .s.0.next)))
(let ((.def_44 (not .s.1.next)))
(let ((.def_47 (and .def_44 .def_46)))
(let ((.def_42 (not .s.2.next)))
(let ((.def_48 (and .def_42 .def_47)))
(let ((.def_40 (not .s.3.next)))
(let ((.def_49 (and .def_40 .def_48)))
(let ((.def_38 (= main.mc_i main.mc_i.next)))
(let ((.def_50 (and .def_38 .def_49)))
(let ((.def_35 (= main.n1 main.n1.next)))
(let ((.def_51 (and .def_35 .def_50)))
(let ((.def_32 (= main.maxdata main.maxdata.next)))
(let ((.def_52 (and .def_32 .def_51)))
(let ((.def_29 (= main.n2 main.n2.next)))
(let ((.def_53 (and .def_29 .def_52)))
(let ((.def_26 (= main.cpoff main.cpoff.next)))
(let ((.def_54 (and .def_26 .def_53)))
(let ((.def_237 (or .def_54 .def_236)))
(let ((.def_73 (and .s.1.next .def_46)))
(let ((.def_89 (and .def_42 .def_73)))
(let ((.def_228 (and .def_40 .def_89)))
(let ((.def_229 (and .def_38 .def_228)))
(let ((.def_230 (and .def_35 .def_229)))
(let ((.def_231 (and .def_32 .def_230)))
(let ((.def_232 (and .def_29 .def_231)))
(let ((.def_233 (and .def_26 .def_232)))
(let ((.def_221 (<= main.maxdata 0)))
(let ((.def_225 (not .def_221)))
(let ((.def_12 (and .def_10 .s.0)))
(let ((.def_15 (and .def_12 .def_14)))
(let ((.def_18 (and .def_15 .def_17)))
(let ((.def_226 (and .def_18 .def_225)))
(let ((.def_227 (not .def_226)))
(let ((.def_234 (or .def_227 .def_233)))
(let ((.def_238 (and .def_234 .def_237)))
(let ((.def_222 (and .def_18 .def_221)))
(let ((.def_223 (not .def_222)))
(let ((.def_224 (or .def_54 .def_223)))
(let ((.def_239 (and .def_224 .def_238)))
(let ((.def_204 (* (- 1) main.n1)))
(let ((.def_205 (* 2 main.maxdata)))
(let ((.def_206 (+ .def_205 .def_204)))
(let ((.def_207 (<= 0 .def_206)))
(let ((.def_217 (not .def_207)))
(let ((.def_69 (and .s.1 .def_19)))
(let ((.def_70 (and .def_14 .def_69)))
(let ((.def_202 (and .def_17 .def_70)))
(let ((.def_218 (and .def_202 .def_217)))
(let ((.def_219 (not .def_218)))
(let ((.def_220 (or .def_54 .def_219)))
(let ((.def_240 (and .def_220 .def_239)))
(let ((.def_60 (and .s.1.next .s.0.next)))
(let ((.def_61 (and .def_42 .def_60)))
(let ((.def_210 (and .def_40 .def_61)))
(let ((.def_211 (and .def_38 .def_210)))
(let ((.def_212 (and .def_35 .def_211)))
(let ((.def_213 (and .def_32 .def_212)))
(let ((.def_214 (and .def_29 .def_213)))
(let ((.def_215 (and .def_26 .def_214)))
(let ((.def_208 (and .def_202 .def_207)))
(let ((.def_209 (not .def_208)))
(let ((.def_216 (or .def_209 .def_215)))
(let ((.def_241 (and .def_216 .def_240)))
(let ((.def_149 (and .s.2.next .def_47)))
(let ((.def_195 (and .def_40 .def_149)))
(let ((.def_196 (and .def_38 .def_195)))
(let ((.def_197 (and .def_35 .def_196)))
(let ((.def_198 (and .def_32 .def_197)))
(let ((.def_199 (and .def_29 .def_198)))
(let ((.def_200 (and .def_26 .def_199)))
(let ((.def_188 (<= main.cpoff main.n1)))
(let ((.def_56 (and .s.1 .s.0)))
(let ((.def_57 (and .def_14 .def_56)))
(let ((.def_187 (and .def_17 .def_57)))
(let ((.def_193 (and .def_187 .def_188)))
(let ((.def_194 (not .def_193)))
(let ((.def_201 (or .def_194 .def_200)))
(let ((.def_242 (and .def_201 .def_241)))
(let ((.def_189 (not .def_188)))
(let ((.def_190 (and .def_187 .def_189)))
(let ((.def_191 (not .def_190)))
(let ((.def_192 (or .def_54 .def_191)))
(let ((.def_243 (and .def_192 .def_242)))
(let ((.def_113 (* (- 2) main.maxdata)))
(let ((.def_170 (+ .def_113 main.n1)))
(let ((.def_171 (+ main.n2 .def_170)))
(let ((.def_172 (<= .def_171 0)))
(let ((.def_183 (not .def_172)))
(let ((.def_21 (and .s.2 .def_20)))
(let ((.def_167 (and .def_17 .def_21)))
(let ((.def_184 (and .def_167 .def_183)))
(let ((.def_185 (not .def_184)))
(let ((.def_186 (or .def_54 .def_185)))
(let ((.def_244 (and .def_186 .def_243)))
(let ((.def_100 (and .def_44 .s.0.next)))
(let ((.def_175 (and .s.2.next .def_100)))
(let ((.def_176 (and .def_40 .def_175)))
(let ((.def_177 (and .def_38 .def_176)))
(let ((.def_178 (and .def_35 .def_177)))
(let ((.def_179 (and .def_32 .def_178)))
(let ((.def_180 (and .def_29 .def_179)))
(let ((.def_181 (and .def_26 .def_180)))
(let ((.def_173 (and .def_167 .def_172)))
(let ((.def_174 (not .def_173)))
(let ((.def_182 (or .def_174 .def_181)))
(let ((.def_245 (and .def_182 .def_244)))
(let ((.def_160 (= main.mc_i.next 0)))
(let ((.def_74 (and .s.2.next .def_73)))
(let ((.def_75 (and .def_40 .def_74)))
(let ((.def_161 (and .def_75 .def_160)))
(let ((.def_162 (and .def_35 .def_161)))
(let ((.def_163 (and .def_32 .def_162)))
(let ((.def_164 (and .def_29 .def_163)))
(let ((.def_165 (and .def_26 .def_164)))
(let ((.def_157 (and .def_12 .s.2)))
(let ((.def_158 (and .def_17 .def_157)))
(let ((.def_159 (not .def_158)))
(let ((.def_166 (or .def_159 .def_165)))
(let ((.def_246 (and .def_166 .def_245)))
(let ((.def_150 (and .s.3.next .def_149)))
(let ((.def_151 (and .def_38 .def_150)))
(let ((.def_152 (and .def_35 .def_151)))
(let ((.def_153 (and .def_32 .def_152)))
(let ((.def_154 (and .def_29 .def_153)))
(let ((.def_155 (and .def_26 .def_154)))
(let ((.def_135 (<= main.n2 main.mc_i)))
(let ((.def_133 (and .s.2 .def_69)))
(let ((.def_134 (and .def_17 .def_133)))
(let ((.def_147 (and .def_134 .def_135)))
(let ((.def_148 (not .def_147)))
(let ((.def_156 (or .def_148 .def_155)))
(let ((.def_247 (and .def_156 .def_246)))
(let ((.def_139 (and .s.2.next .def_60)))
(let ((.def_140 (and .def_40 .def_139)))
(let ((.def_141 (and .def_38 .def_140)))
(let ((.def_142 (and .def_35 .def_141)))
(let ((.def_143 (and .def_32 .def_142)))
(let ((.def_144 (and .def_29 .def_143)))
(let ((.def_145 (and .def_26 .def_144)))
(let ((.def_136 (not .def_135)))
(let ((.def_137 (and .def_134 .def_136)))
(let ((.def_138 (not .def_137)))
(let ((.def_146 (or .def_138 .def_145)))
(let ((.def_248 (and .def_146 .def_247)))
(let ((.def_117 (+ .def_113 main.mc_i)))
(let ((.def_118 (+ main.cpoff .def_117)))
(let ((.def_119 (<= 0 .def_118)))
(let ((.def_109 (and .s.2 .def_56)))
(let ((.def_110 (and .def_17 .def_109)))
(let ((.def_130 (and .def_110 .def_119)))
(let ((.def_131 (not .def_130)))
(let ((.def_62 (and .s.3.next .def_61)))
(let ((.def_63 (and .def_38 .def_62)))
(let ((.def_64 (and .def_35 .def_63)))
(let ((.def_65 (and .def_32 .def_64)))
(let ((.def_66 (and .def_29 .def_65)))
(let ((.def_67 (and .def_26 .def_66)))
(let ((.def_132 (or .def_67 .def_131)))
(let ((.def_249 (and .def_132 .def_248)))
(let ((.def_123 (and .s.3.next .def_48)))
(let ((.def_124 (and .def_38 .def_123)))
(let ((.def_125 (and .def_35 .def_124)))
(let ((.def_126 (and .def_32 .def_125)))
(let ((.def_127 (and .def_29 .def_126)))
(let ((.def_128 (and .def_26 .def_127)))
(let ((.def_120 (not .def_119)))
(let ((.def_121 (and .def_110 .def_120)))
(let ((.def_122 (not .def_121)))
(let ((.def_129 (or .def_122 .def_128)))
(let ((.def_250 (and .def_129 .def_249)))
(let ((.def_101 (and .def_42 .def_100)))
(let ((.def_102 (and .s.3.next .def_101)))
(let ((.def_103 (and .def_38 .def_102)))
(let ((.def_104 (and .def_35 .def_103)))
(let ((.def_105 (and .def_32 .def_104)))
(let ((.def_106 (and .def_29 .def_105)))
(let ((.def_107 (and .def_26 .def_106)))
(let ((.def_98 (and .s.3 .def_97)))
(let ((.def_99 (not .def_98)))
(let ((.def_108 (or .def_99 .def_107)))
(let ((.def_251 (and .def_108 .def_250)))
(let ((.def_90 (and .s.3.next .def_89)))
(let ((.def_86 (* (- 1) main.mc_i.next)))
(let ((.def_87 (+ main.mc_i .def_86)))
(let ((.def_88 (= .def_87 (- 1))))
(let ((.def_91 (and .def_88 .def_90)))
(let ((.def_92 (and .def_35 .def_91)))
(let ((.def_93 (and .def_32 .def_92)))
(let ((.def_94 (and .def_29 .def_93)))
(let ((.def_95 (and .def_26 .def_94)))
(let ((.def_82 (and .def_15 .s.3)))
(let ((.def_83 (not .def_82)))
(let ((.def_96 (or .def_83 .def_95)))
(let ((.def_252 (and .def_96 .def_251)))
(let ((.def_76 (and .def_38 .def_75)))
(let ((.def_77 (and .def_35 .def_76)))
(let ((.def_78 (and .def_32 .def_77)))
(let ((.def_79 (and .def_29 .def_78)))
(let ((.def_80 (and .def_26 .def_79)))
(let ((.def_71 (and .s.3 .def_70)))
(let ((.def_72 (not .def_71)))
(let ((.def_81 (or .def_72 .def_80)))
(let ((.def_253 (and .def_81 .def_252)))
(let ((.def_58 (and .s.3 .def_57)))
(let ((.def_59 (not .def_58)))
(let ((.def_68 (or .def_59 .def_67)))
(let ((.def_254 (and .def_68 .def_253)))
(let ((.def_22 (and .s.3 .def_21)))
(let ((.def_23 (not .def_22)))
(let ((.def_55 (or .def_23 .def_54)))
(let ((.def_255 (and .def_55 .def_254)))
.def_255)))))))))))))))))))))))))))))))))))))))))))))))))))))))))))))))))))))))))))))))))))))))))))))))))))))))))))))))))))))))))))))))))))))))))))))))))))))))))))))))))))))))))))))))))))))))))))))))))))))))))))))))))))))))))))) (state |.s.1.next| |.s.0.next| |.s.2.next| |.s.3.next| |main.cpoff.next| |main.n2.next| |main.maxdata.next| |main.n1.next| |main.mc_i.next|))))
(assert (forall ((|.s.0| Bool) (|.s.2| Bool) (|.s.1| Bool) (|.s.0.next| Bool) (|.s.1.next| Bool) (|.s.2.next| Bool) (|.s.3.next| Bool) (|main.mc_i.next| Int) (|main.mc_i| Int) (|main.n1.next| Int) (|main.n1| Int) (|main.maxdata.next| Int) (|main.maxdata| Int) (|main.n2.next| Int) (|main.n2| Int) (|main.cpoff.next| Int) (|main.cpoff| Int) (|.s.3| Bool)) (=> (state |.s.1| |.s.0| |.s.2| |.s.3| |main.cpoff| |main.n2| |main.maxdata| |main.n1| |main.mc_i|) (let ((.def_56 (and .s.1 .s.0)))
(let ((.def_14 (not .s.2)))
(let ((.def_57 (and .def_14 .def_56)))
(let ((.def_58 (and .s.3 .def_57)))
(let ((.def_59 (not .def_58)))
.def_59))))))))
(check-sat)
